# Objective value = 387
x0,1_12 0
x0,1_17 0
x0,1_24 0
x0,1_27 0
x0,1_28 0
x0,1_29 0
x0,1_36 0
x0,1_40 0
x0,1_41 0
x0,1_46 0
x0,1_53 0
x0,1_55 0
x0,1_64 0
x0,1_67 0
x0,1_70 0
x0,1_81 0
x0,1_82 0
x0,1_91 0
x0,1_108 0
x0,1_110 0
x0,1_137 0
x0,2_12 0
x0,2_17 0
x0,2_24 0
x0,2_27 0
x0,2_28 0
x0,2_29 0
x0,2_36 0
x0,2_40 0
x0,2_41 0
x0,2_46 0
x0,2_53 0
x0,2_55 0
x0,2_64 0
x0,2_67 0
x0,2_70 0
x0,2_81 0
x0,2_82 0
x0,2_91 0
x0,2_108 0
x0,2_110 0
x0,2_137 0
x0,3_12 0
x0,3_17 0
x0,3_24 0
x0,3_27 0
x0,3_28 0
x0,3_29 0
x0,3_36 0
x0,3_40 0
x0,3_41 0
x0,3_46 0
x0,3_53 0
x0,3_55 0
x0,3_64 0
x0,3_67 0
x0,3_70 0
x0,3_81 0
x0,3_82 0
x0,3_91 0
x0,3_108 0
x0,3_110 0
x0,3_137 0
x0,4_12 0
x0,4_17 0
x0,4_24 0
x0,4_27 0
x0,4_28 0
x0,4_29 0
x0,4_36 0
x0,4_40 0
x0,4_41 0
x0,4_46 0
x0,4_53 0
x0,4_55 0
x0,4_64 0
x0,4_67 0
x0,4_70 0
x0,4_81 0
x0,4_82 0
x0,4_91 0
x0,4_108 0
x0,4_110 0
x0,4_137 0
x0,5_12 0
x0,5_17 0
x0,5_24 0
x0,5_27 0
x0,5_28 0
x0,5_29 0
x0,5_36 0
x0,5_40 0
x0,5_41 0
x0,5_46 0
x0,5_53 0
x0,5_55 0
x0,5_64 0
x0,5_67 0
x0,5_70 0
x0,5_81 0
x0,5_82 0
x0,5_91 0
x0,5_108 0
x0,5_110 0
x0,5_137 0
x0,6_12 0
x0,6_17 0
x0,6_24 0
x0,6_27 0
x0,6_28 0
x0,6_29 0
x0,6_36 0
x0,6_40 0
x0,6_41 0
x0,6_46 0
x0,6_53 0
x0,6_55 0
x0,6_64 0
x0,6_67 0
x0,6_70 0
x0,6_81 0
x0,6_82 0
x0,6_91 0
x0,6_108 0
x0,6_110 0
x0,6_137 0
x0,7_12 0
x0,7_17 0
x0,7_24 0
x0,7_27 0
x0,7_28 0
x0,7_29 0
x0,7_36 0
x0,7_40 0
x0,7_41 0
x0,7_46 0
x0,7_53 0
x0,7_55 0
x0,7_64 0
x0,7_67 0
x0,7_70 0
x0,7_81 0
x0,7_82 0
x0,7_91 0
x0,7_108 0
x0,7_110 0
x0,7_137 0
x0,8_12 0
x0,8_17 0
x0,8_24 0
x0,8_27 0
x0,8_28 0
x0,8_29 0
x0,8_36 0
x0,8_40 0
x0,8_41 0
x0,8_46 0
x0,8_53 0
x0,8_55 0
x0,8_64 0
x0,8_67 0
x0,8_70 0
x0,8_81 0
x0,8_82 0
x0,8_91 0
x0,8_108 0
x0,8_110 0
x0,8_137 0
x0,9_12 0
x0,9_17 0
x0,9_24 0
x0,9_27 0
x0,9_28 0
x0,9_29 0
x0,9_36 0
x0,9_40 0
x0,9_41 0
x0,9_46 0
x0,9_53 0
x0,9_55 0
x0,9_64 0
x0,9_67 0
x0,9_70 0
x0,9_81 0
x0,9_82 0
x0,9_91 0
x0,9_108 0
x0,9_110 0
x0,9_137 0
x0,10_12 0
x0,10_17 0
x0,10_24 0
x0,10_27 0
x0,10_28 0
x0,10_29 0
x0,10_36 0
x0,10_40 0
x0,10_41 0
x0,10_46 0
x0,10_53 0
x0,10_55 0
x0,10_64 0
x0,10_67 0
x0,10_70 0
x0,10_81 0
x0,10_82 0
x0,10_91 0
x0,10_108 0
x0,10_110 0
x0,10_137 0
x0,11_12 0
x0,11_17 0
x0,11_24 0
x0,11_27 0
x0,11_28 0
x0,11_29 1
x0,11_36 0
x0,11_40 0
x0,11_41 0
x0,11_46 0
x0,11_53 0
x0,11_55 0
x0,11_64 0
x0,11_67 0
x0,11_70 0
x0,11_81 0
x0,11_82 0
x0,11_91 0
x0,11_108 0
x0,11_110 0
x0,11_137 0
x0,12_12 0
x0,12_17 0
x0,12_24 0
x0,12_27 0
x0,12_28 0
x0,12_29 0
x0,12_36 0
x0,12_40 0
x0,12_41 0
x0,12_46 1
x0,12_53 0
x0,12_55 0
x0,12_64 0
x0,12_67 0
x0,12_70 0
x0,12_81 0
x0,12_82 0
x0,12_91 0
x0,12_108 0
x0,12_110 0
x0,12_137 0
x0,13_12 0
x0,13_17 0
x0,13_24 0
x0,13_27 0
x0,13_28 0
x0,13_29 0
x0,13_36 0
x0,13_40 0
x0,13_41 0
x0,13_46 0
x0,13_53 0
x0,13_55 0
x0,13_64 0
x0,13_67 0
x0,13_70 0
x0,13_81 0
x0,13_82 1
x0,13_91 0
x0,13_108 0
x0,13_110 0
x0,13_137 0
x0,14_12 0
x0,14_17 0
x0,14_24 0
x0,14_27 0
x0,14_28 0
x0,14_29 0
x0,14_36 0
x0,14_40 0
x0,14_41 0
x0,14_46 0
x0,14_53 0
x0,14_55 0
x0,14_64 0
x0,14_67 0
x0,14_70 0
x0,14_81 0
x0,14_82 0
x0,14_91 0
x0,14_108 0
x0,14_110 0
x0,14_137 1
x1,2_12 0
x1,2_17 0
x1,2_24 0
x1,2_27 0
x1,2_28 0
x1,2_29 0
x1,2_36 0
x1,2_40 0
x1,2_41 0
x1,2_46 0
x1,2_53 0
x1,2_55 0
x1,2_64 0
x1,2_67 0
x1,2_70 0
x1,2_81 0
x1,2_82 0
x1,2_91 0
x1,2_108 0
x1,2_110 0
x1,2_137 0
x1,3_12 0
x1,3_17 0
x1,3_24 0
x1,3_27 0
x1,3_28 0
x1,3_29 0
x1,3_36 0
x1,3_40 0
x1,3_41 0
x1,3_46 0
x1,3_53 0
x1,3_55 0
x1,3_64 0
x1,3_67 0
x1,3_70 0
x1,3_81 0
x1,3_82 0
x1,3_91 0
x1,3_108 0
x1,3_110 0
x1,3_137 0
x1,4_12 0
x1,4_17 0
x1,4_24 0
x1,4_27 0
x1,4_28 0
x1,4_29 0
x1,4_36 0
x1,4_40 0
x1,4_41 0
x1,4_46 0
x1,4_53 0
x1,4_55 0
x1,4_64 0
x1,4_67 0
x1,4_70 0
x1,4_81 0
x1,4_82 0
x1,4_91 0
x1,4_108 0
x1,4_110 0
x1,4_137 0
x1,5_12 0
x1,5_17 0
x1,5_24 0
x1,5_27 0
x1,5_28 0
x1,5_29 0
x1,5_36 0
x1,5_40 0
x1,5_41 0
x1,5_46 0
x1,5_53 0
x1,5_55 0
x1,5_64 0
x1,5_67 0
x1,5_70 0
x1,5_81 0
x1,5_82 0
x1,5_91 0
x1,5_108 0
x1,5_110 0
x1,5_137 0
x1,6_12 0
x1,6_17 0
x1,6_24 0
x1,6_27 0
x1,6_28 0
x1,6_29 0
x1,6_36 0
x1,6_40 0
x1,6_41 0
x1,6_46 0
x1,6_53 0
x1,6_55 0
x1,6_64 0
x1,6_67 0
x1,6_70 0
x1,6_81 0
x1,6_82 0
x1,6_91 0
x1,6_108 0
x1,6_110 0
x1,6_137 0
x1,7_12 0
x1,7_17 0
x1,7_24 0
x1,7_27 0
x1,7_28 0
x1,7_29 0
x1,7_36 0
x1,7_40 0
x1,7_41 0
x1,7_46 0
x1,7_53 0
x1,7_55 0
x1,7_64 0
x1,7_67 0
x1,7_70 0
x1,7_81 0
x1,7_82 0
x1,7_91 0
x1,7_108 0
x1,7_110 0
x1,7_137 0
x1,8_12 0
x1,8_17 0
x1,8_24 0
x1,8_27 0
x1,8_28 0
x1,8_29 0
x1,8_36 0
x1,8_40 0
x1,8_41 0
x1,8_46 0
x1,8_53 0
x1,8_55 0
x1,8_64 0
x1,8_67 0
x1,8_70 0
x1,8_81 0
x1,8_82 0
x1,8_91 0
x1,8_108 0
x1,8_110 0
x1,8_137 0
x1,9_12 0
x1,9_17 0
x1,9_24 0
x1,9_27 0
x1,9_28 0
x1,9_29 0
x1,9_36 0
x1,9_40 0
x1,9_41 0
x1,9_46 0
x1,9_53 0
x1,9_55 0
x1,9_64 0
x1,9_67 0
x1,9_70 0
x1,9_81 0
x1,9_82 0
x1,9_91 0
x1,9_108 0
x1,9_110 0
x1,9_137 0
x1,10_12 0
x1,10_17 0
x1,10_24 0
x1,10_27 0
x1,10_28 0
x1,10_29 0
x1,10_36 0
x1,10_40 0
x1,10_41 0
x1,10_46 0
x1,10_53 0
x1,10_55 0
x1,10_64 0
x1,10_67 0
x1,10_70 0
x1,10_81 0
x1,10_82 0
x1,10_91 0
x1,10_108 0
x1,10_110 0
x1,10_137 0
x1,11_12 0
x1,11_17 0
x1,11_24 0
x1,11_27 0
x1,11_28 1
x1,11_29 0
x1,11_36 0
x1,11_40 0
x1,11_41 0
x1,11_46 0
x1,11_53 0
x1,11_55 0
x1,11_64 0
x1,11_67 0
x1,11_70 0
x1,11_81 0
x1,11_82 0
x1,11_91 0
x1,11_108 0
x1,11_110 0
x1,11_137 0
x1,12_12 0
x1,12_17 0
x1,12_24 0
x1,12_27 0
x1,12_28 0
x1,12_29 0
x1,12_36 0
x1,12_40 0
x1,12_41 0
x1,12_46 0
x1,12_53 0
x1,12_55 0
x1,12_64 0
x1,12_67 0
x1,12_70 0
x1,12_81 0
x1,12_82 0
x1,12_91 0
x1,12_108 0
x1,12_110 0
x1,12_137 0
x1,13_12 0
x1,13_17 0
x1,13_24 0
x1,13_27 0
x1,13_28 0
x1,13_29 0
x1,13_36 0
x1,13_40 0
x1,13_41 0
x1,13_46 0
x1,13_53 0
x1,13_55 0
x1,13_64 0
x1,13_67 0
x1,13_70 0
x1,13_81 1
x1,13_82 0
x1,13_91 0
x1,13_108 0
x1,13_110 0
x1,13_137 0
x1,14_12 0
x1,14_17 0
x1,14_24 0
x1,14_27 0
x1,14_28 0
x1,14_29 0
x1,14_36 0
x1,14_40 0
x1,14_41 0
x1,14_46 0
x1,14_53 0
x1,14_55 0
x1,14_64 0
x1,14_67 0
x1,14_70 0
x1,14_81 0
x1,14_82 0
x1,14_91 0
x1,14_108 0
x1,14_110 0
x1,14_137 0
x2,3_12 0
x2,3_17 0
x2,3_24 0
x2,3_27 0
x2,3_28 0
x2,3_29 0
x2,3_36 0
x2,3_40 0
x2,3_41 0
x2,3_46 0
x2,3_53 0
x2,3_55 0
x2,3_64 0
x2,3_67 0
x2,3_70 0
x2,3_81 0
x2,3_82 0
x2,3_91 0
x2,3_108 0
x2,3_110 0
x2,3_137 0
x2,4_12 0
x2,4_17 0
x2,4_24 0
x2,4_27 0
x2,4_28 0
x2,4_29 0
x2,4_36 0
x2,4_40 0
x2,4_41 0
x2,4_46 0
x2,4_53 0
x2,4_55 0
x2,4_64 0
x2,4_67 0
x2,4_70 0
x2,4_81 0
x2,4_82 0
x2,4_91 0
x2,4_108 0
x2,4_110 0
x2,4_137 0
x2,5_12 0
x2,5_17 0
x2,5_24 0
x2,5_27 0
x2,5_28 0
x2,5_29 0
x2,5_36 0
x2,5_40 0
x2,5_41 0
x2,5_46 0
x2,5_53 0
x2,5_55 0
x2,5_64 0
x2,5_67 0
x2,5_70 0
x2,5_81 0
x2,5_82 0
x2,5_91 0
x2,5_108 0
x2,5_110 0
x2,5_137 0
x2,6_12 0
x2,6_17 0
x2,6_24 0
x2,6_27 0
x2,6_28 0
x2,6_29 0
x2,6_36 0
x2,6_40 0
x2,6_41 0
x2,6_46 0
x2,6_53 0
x2,6_55 0
x2,6_64 0
x2,6_67 0
x2,6_70 0
x2,6_81 0
x2,6_82 0
x2,6_91 0
x2,6_108 0
x2,6_110 0
x2,6_137 0
x2,7_12 0
x2,7_17 0
x2,7_24 0
x2,7_27 0
x2,7_28 0
x2,7_29 0
x2,7_36 0
x2,7_40 0
x2,7_41 0
x2,7_46 0
x2,7_53 0
x2,7_55 0
x2,7_64 0
x2,7_67 0
x2,7_70 0
x2,7_81 0
x2,7_82 0
x2,7_91 0
x2,7_108 0
x2,7_110 0
x2,7_137 0
x2,8_12 0
x2,8_17 0
x2,8_24 0
x2,8_27 0
x2,8_28 0
x2,8_29 0
x2,8_36 0
x2,8_40 0
x2,8_41 0
x2,8_46 0
x2,8_53 0
x2,8_55 0
x2,8_64 0
x2,8_67 0
x2,8_70 0
x2,8_81 0
x2,8_82 0
x2,8_91 0
x2,8_108 0
x2,8_110 0
x2,8_137 0
x2,9_12 0
x2,9_17 0
x2,9_24 0
x2,9_27 0
x2,9_28 0
x2,9_29 0
x2,9_36 0
x2,9_40 0
x2,9_41 0
x2,9_46 0
x2,9_53 0
x2,9_55 0
x2,9_64 0
x2,9_67 0
x2,9_70 0
x2,9_81 0
x2,9_82 0
x2,9_91 0
x2,9_108 0
x2,9_110 0
x2,9_137 0
x2,10_12 0
x2,10_17 0
x2,10_24 0
x2,10_27 0
x2,10_28 0
x2,10_29 0
x2,10_36 0
x2,10_40 0
x2,10_41 0
x2,10_46 0
x2,10_53 0
x2,10_55 0
x2,10_64 0
x2,10_67 0
x2,10_70 0
x2,10_81 0
x2,10_82 0
x2,10_91 0
x2,10_108 0
x2,10_110 0
x2,10_137 0
x2,11_12 0
x2,11_17 0
x2,11_24 0
x2,11_27 1
x2,11_28 0
x2,11_29 0
x2,11_36 0
x2,11_40 0
x2,11_41 0
x2,11_46 0
x2,11_53 0
x2,11_55 0
x2,11_64 0
x2,11_67 0
x2,11_70 0
x2,11_81 0
x2,11_82 0
x2,11_91 0
x2,11_108 0
x2,11_110 0
x2,11_137 0
x2,12_12 0
x2,12_17 0
x2,12_24 0
x2,12_27 0
x2,12_28 0
x2,12_29 0
x2,12_36 0
x2,12_40 0
x2,12_41 0
x2,12_46 0
x2,12_53 0
x2,12_55 0
x2,12_64 0
x2,12_67 0
x2,12_70 0
x2,12_81 0
x2,12_82 0
x2,12_91 0
x2,12_108 0
x2,12_110 0
x2,12_137 0
x2,13_12 0
x2,13_17 0
x2,13_24 0
x2,13_27 0
x2,13_28 0
x2,13_29 0
x2,13_36 0
x2,13_40 0
x2,13_41 0
x2,13_46 0
x2,13_53 0
x2,13_55 0
x2,13_64 0
x2,13_67 0
x2,13_70 0
x2,13_81 0
x2,13_82 0
x2,13_91 0
x2,13_108 0
x2,13_110 0
x2,13_137 0
x2,14_12 0
x2,14_17 0
x2,14_24 0
x2,14_27 0
x2,14_28 0
x2,14_29 0
x2,14_36 0
x2,14_40 0
x2,14_41 0
x2,14_46 0
x2,14_53 0
x2,14_55 0
x2,14_64 0
x2,14_67 0
x2,14_70 0
x2,14_81 0
x2,14_82 0
x2,14_91 0
x2,14_108 0
x2,14_110 0
x2,14_137 0
x3,4_12 0
x3,4_17 0
x3,4_24 0
x3,4_27 0
x3,4_28 0
x3,4_29 0
x3,4_36 0
x3,4_40 0
x3,4_41 0
x3,4_46 0
x3,4_53 0
x3,4_55 0
x3,4_64 0
x3,4_67 0
x3,4_70 0
x3,4_81 0
x3,4_82 0
x3,4_91 0
x3,4_108 0
x3,4_110 0
x3,4_137 0
x3,5_12 0
x3,5_17 0
x3,5_24 0
x3,5_27 0
x3,5_28 0
x3,5_29 0
x3,5_36 0
x3,5_40 0
x3,5_41 0
x3,5_46 0
x3,5_53 0
x3,5_55 0
x3,5_64 0
x3,5_67 0
x3,5_70 0
x3,5_81 0
x3,5_82 0
x3,5_91 0
x3,5_108 0
x3,5_110 0
x3,5_137 0
x3,6_12 0
x3,6_17 0
x3,6_24 0
x3,6_27 0
x3,6_28 0
x3,6_29 0
x3,6_36 0
x3,6_40 0
x3,6_41 0
x3,6_46 0
x3,6_53 0
x3,6_55 0
x3,6_64 0
x3,6_67 0
x3,6_70 0
x3,6_81 0
x3,6_82 0
x3,6_91 0
x3,6_108 0
x3,6_110 0
x3,6_137 0
x3,7_12 0
x3,7_17 0
x3,7_24 0
x3,7_27 0
x3,7_28 0
x3,7_29 0
x3,7_36 0
x3,7_40 0
x3,7_41 0
x3,7_46 0
x3,7_53 0
x3,7_55 0
x3,7_64 0
x3,7_67 0
x3,7_70 0
x3,7_81 0
x3,7_82 0
x3,7_91 0
x3,7_108 0
x3,7_110 0
x3,7_137 0
x3,8_12 0
x3,8_17 0
x3,8_24 0
x3,8_27 0
x3,8_28 0
x3,8_29 0
x3,8_36 0
x3,8_40 0
x3,8_41 0
x3,8_46 0
x3,8_53 0
x3,8_55 0
x3,8_64 0
x3,8_67 0
x3,8_70 0
x3,8_81 0
x3,8_82 0
x3,8_91 0
x3,8_108 0
x3,8_110 0
x3,8_137 0
x3,9_12 0
x3,9_17 0
x3,9_24 0
x3,9_27 0
x3,9_28 0
x3,9_29 0
x3,9_36 0
x3,9_40 0
x3,9_41 0
x3,9_46 0
x3,9_53 0
x3,9_55 0
x3,9_64 0
x3,9_67 0
x3,9_70 0
x3,9_81 0
x3,9_82 0
x3,9_91 0
x3,9_108 0
x3,9_110 0
x3,9_137 0
x3,10_12 0
x3,10_17 0
x3,10_24 1
x3,10_27 0
x3,10_28 0
x3,10_29 0
x3,10_36 0
x3,10_40 0
x3,10_41 0
x3,10_46 0
x3,10_53 0
x3,10_55 0
x3,10_64 0
x3,10_67 0
x3,10_70 0
x3,10_81 0
x3,10_82 0
x3,10_91 0
x3,10_108 0
x3,10_110 0
x3,10_137 0
x3,11_12 0
x3,11_17 0
x3,11_24 0
x3,11_27 0
x3,11_28 0
x3,11_29 0
x3,11_36 0
x3,11_40 0
x3,11_41 0
x3,11_46 0
x3,11_53 0
x3,11_55 0
x3,11_64 0
x3,11_67 0
x3,11_70 0
x3,11_81 0
x3,11_82 0
x3,11_91 0
x3,11_108 0
x3,11_110 0
x3,11_137 0
x3,12_12 0
x3,12_17 0
x3,12_24 0
x3,12_27 0
x3,12_28 0
x3,12_29 0
x3,12_36 0
x3,12_40 0
x3,12_41 0
x3,12_46 0
x3,12_53 0
x3,12_55 0
x3,12_64 0
x3,12_67 0
x3,12_70 0
x3,12_81 0
x3,12_82 0
x3,12_91 0
x3,12_108 0
x3,12_110 0
x3,12_137 0
x3,13_12 0
x3,13_17 0
x3,13_24 0
x3,13_27 0
x3,13_28 0
x3,13_29 0
x3,13_36 0
x3,13_40 0
x3,13_41 0
x3,13_46 0
x3,13_53 0
x3,13_55 0
x3,13_64 0
x3,13_67 0
x3,13_70 0
x3,13_81 0
x3,13_82 0
x3,13_91 0
x3,13_108 0
x3,13_110 0
x3,13_137 0
x3,14_12 0
x3,14_17 0
x3,14_24 0
x3,14_27 0
x3,14_28 0
x3,14_29 0
x3,14_36 0
x3,14_40 0
x3,14_41 0
x3,14_46 0
x3,14_53 0
x3,14_55 0
x3,14_64 0
x3,14_67 0
x3,14_70 0
x3,14_81 0
x3,14_82 0
x3,14_91 0
x3,14_108 0
x3,14_110 0
x3,14_137 0
x4,5_12 0
x4,5_17 0
x4,5_24 0
x4,5_27 0
x4,5_28 0
x4,5_29 0
x4,5_36 0
x4,5_40 0
x4,5_41 0
x4,5_46 0
x4,5_53 0
x4,5_55 0
x4,5_64 0
x4,5_67 0
x4,5_70 0
x4,5_81 0
x4,5_82 0
x4,5_91 0
x4,5_108 0
x4,5_110 0
x4,5_137 0
x4,6_12 0
x4,6_17 0
x4,6_24 0
x4,6_27 0
x4,6_28 0
x4,6_29 0
x4,6_36 0
x4,6_40 0
x4,6_41 0
x4,6_46 0
x4,6_53 0
x4,6_55 0
x4,6_64 0
x4,6_67 0
x4,6_70 0
x4,6_81 0
x4,6_82 0
x4,6_91 0
x4,6_108 0
x4,6_110 0
x4,6_137 0
x4,7_12 0
x4,7_17 0
x4,7_24 0
x4,7_27 0
x4,7_28 0
x4,7_29 0
x4,7_36 0
x4,7_40 0
x4,7_41 0
x4,7_46 0
x4,7_53 0
x4,7_55 0
x4,7_64 0
x4,7_67 0
x4,7_70 0
x4,7_81 0
x4,7_82 0
x4,7_91 0
x4,7_108 0
x4,7_110 0
x4,7_137 0
x4,8_12 0
x4,8_17 0
x4,8_24 0
x4,8_27 0
x4,8_28 0
x4,8_29 0
x4,8_36 0
x4,8_40 0
x4,8_41 0
x4,8_46 0
x4,8_53 0
x4,8_55 0
x4,8_64 0
x4,8_67 0
x4,8_70 0
x4,8_81 0
x4,8_82 0
x4,8_91 0
x4,8_108 0
x4,8_110 0
x4,8_137 0
x4,9_12 0
x4,9_17 0
x4,9_24 0
x4,9_27 0
x4,9_28 0
x4,9_29 0
x4,9_36 0
x4,9_40 0
x4,9_41 0
x4,9_46 0
x4,9_53 0
x4,9_55 0
x4,9_64 0
x4,9_67 0
x4,9_70 0
x4,9_81 0
x4,9_82 0
x4,9_91 0
x4,9_108 0
x4,9_110 0
x4,9_137 0
x4,10_12 0
x4,10_17 0
x4,10_24 0
x4,10_27 0
x4,10_28 0
x4,10_29 0
x4,10_36 0
x4,10_40 0
x4,10_41 0
x4,10_46 0
x4,10_53 0
x4,10_55 0
x4,10_64 0
x4,10_67 0
x4,10_70 0
x4,10_81 0
x4,10_82 0
x4,10_91 0
x4,10_108 0
x4,10_110 0
x4,10_137 0
x4,11_12 0
x4,11_17 0
x4,11_24 0
x4,11_27 0
x4,11_28 0
x4,11_29 0
x4,11_36 0
x4,11_40 0
x4,11_41 0
x4,11_46 0
x4,11_53 0
x4,11_55 0
x4,11_64 0
x4,11_67 0
x4,11_70 0
x4,11_81 0
x4,11_82 0
x4,11_91 0
x4,11_108 0
x4,11_110 0
x4,11_137 0
x4,12_12 0
x4,12_17 0
x4,12_24 0
x4,12_27 0
x4,12_28 0
x4,12_29 0
x4,12_36 0
x4,12_40 0
x4,12_41 0
x4,12_46 0
x4,12_53 0
x4,12_55 0
x4,12_64 0
x4,12_67 0
x4,12_70 0
x4,12_81 0
x4,12_82 0
x4,12_91 0
x4,12_108 0
x4,12_110 0
x4,12_137 0
x4,13_12 0
x4,13_17 0
x4,13_24 0
x4,13_27 0
x4,13_28 0
x4,13_29 0
x4,13_36 0
x4,13_40 0
x4,13_41 0
x4,13_46 0
x4,13_53 0
x4,13_55 0
x4,13_64 0
x4,13_67 0
x4,13_70 0
x4,13_81 0
x4,13_82 0
x4,13_91 0
x4,13_108 0
x4,13_110 0
x4,13_137 0
x4,14_12 0
x4,14_17 0
x4,14_24 0
x4,14_27 0
x4,14_28 0
x4,14_29 0
x4,14_36 0
x4,14_40 0
x4,14_41 0
x4,14_46 0
x4,14_53 0
x4,14_55 0
x4,14_64 0
x4,14_67 0
x4,14_70 0
x4,14_81 0
x4,14_82 0
x4,14_91 0
x4,14_108 0
x4,14_110 0
x4,14_137 0
x5,6_12 0
x5,6_17 0
x5,6_24 0
x5,6_27 0
x5,6_28 0
x5,6_29 0
x5,6_36 0
x5,6_40 0
x5,6_41 0
x5,6_46 0
x5,6_53 0
x5,6_55 0
x5,6_64 0
x5,6_67 0
x5,6_70 0
x5,6_81 0
x5,6_82 0
x5,6_91 0
x5,6_108 0
x5,6_110 0
x5,6_137 0
x5,7_12 0
x5,7_17 0
x5,7_24 0
x5,7_27 0
x5,7_28 0
x5,7_29 0
x5,7_36 0
x5,7_40 0
x5,7_41 0
x5,7_46 0
x5,7_53 0
x5,7_55 0
x5,7_64 0
x5,7_67 0
x5,7_70 0
x5,7_81 0
x5,7_82 0
x5,7_91 0
x5,7_108 0
x5,7_110 0
x5,7_137 0
x5,8_12 0
x5,8_17 0
x5,8_24 0
x5,8_27 0
x5,8_28 0
x5,8_29 0
x5,8_36 0
x5,8_40 0
x5,8_41 0
x5,8_46 0
x5,8_53 0
x5,8_55 0
x5,8_64 0
x5,8_67 0
x5,8_70 0
x5,8_81 0
x5,8_82 0
x5,8_91 0
x5,8_108 0
x5,8_110 0
x5,8_137 0
x5,9_12 0
x5,9_17 0
x5,9_24 0
x5,9_27 0
x5,9_28 0
x5,9_29 0
x5,9_36 0
x5,9_40 0
x5,9_41 0
x5,9_46 0
x5,9_53 0
x5,9_55 0
x5,9_64 0
x5,9_67 0
x5,9_70 0
x5,9_81 0
x5,9_82 0
x5,9_91 0
x5,9_108 0
x5,9_110 0
x5,9_137 0
x5,10_12 0
x5,10_17 0
x5,10_24 0
x5,10_27 0
x5,10_28 0
x5,10_29 0
x5,10_36 0
x5,10_40 0
x5,10_41 0
x5,10_46 0
x5,10_53 0
x5,10_55 0
x5,10_64 0
x5,10_67 0
x5,10_70 0
x5,10_81 0
x5,10_82 0
x5,10_91 0
x5,10_108 0
x5,10_110 0
x5,10_137 0
x5,11_12 0
x5,11_17 0
x5,11_24 0
x5,11_27 0
x5,11_28 0
x5,11_29 0
x5,11_36 0
x5,11_40 0
x5,11_41 0
x5,11_46 0
x5,11_53 0
x5,11_55 0
x5,11_64 0
x5,11_67 0
x5,11_70 0
x5,11_81 0
x5,11_82 0
x5,11_91 0
x5,11_108 0
x5,11_110 0
x5,11_137 0
x5,12_12 0
x5,12_17 0
x5,12_24 0
x5,12_27 0
x5,12_28 0
x5,12_29 0
x5,12_36 0
x5,12_40 0
x5,12_41 1
x5,12_46 0
x5,12_53 0
x5,12_55 0
x5,12_64 0
x5,12_67 0
x5,12_70 0
x5,12_81 0
x5,12_82 0
x5,12_91 0
x5,12_108 0
x5,12_110 0
x5,12_137 0
x5,13_12 0
x5,13_17 0
x5,13_24 0
x5,13_27 0
x5,13_28 0
x5,13_29 0
x5,13_36 0
x5,13_40 0
x5,13_41 0
x5,13_46 0
x5,13_53 0
x5,13_55 0
x5,13_64 0
x5,13_67 0
x5,13_70 0
x5,13_81 0
x5,13_82 0
x5,13_91 0
x5,13_108 0
x5,13_110 0
x5,13_137 0
x5,14_12 0
x5,14_17 0
x5,14_24 0
x5,14_27 0
x5,14_28 0
x5,14_29 0
x5,14_36 0
x5,14_40 0
x5,14_41 0
x5,14_46 0
x5,14_53 0
x5,14_55 0
x5,14_64 0
x5,14_67 0
x5,14_70 0
x5,14_81 0
x5,14_82 0
x5,14_91 0
x5,14_108 0
x5,14_110 0
x5,14_137 0
x6,7_12 0
x6,7_17 0
x6,7_24 0
x6,7_27 0
x6,7_28 0
x6,7_29 0
x6,7_36 0
x6,7_40 0
x6,7_41 0
x6,7_46 0
x6,7_53 0
x6,7_55 0
x6,7_64 0
x6,7_67 0
x6,7_70 0
x6,7_81 0
x6,7_82 0
x6,7_91 0
x6,7_108 0
x6,7_110 0
x6,7_137 0
x6,8_12 0
x6,8_17 0
x6,8_24 0
x6,8_27 0
x6,8_28 0
x6,8_29 0
x6,8_36 0
x6,8_40 0
x6,8_41 0
x6,8_46 0
x6,8_53 0
x6,8_55 0
x6,8_64 0
x6,8_67 0
x6,8_70 0
x6,8_81 0
x6,8_82 0
x6,8_91 0
x6,8_108 0
x6,8_110 0
x6,8_137 0
x6,9_12 1
x6,9_17 0
x6,9_24 0
x6,9_27 0
x6,9_28 0
x6,9_29 0
x6,9_36 0
x6,9_40 0
x6,9_41 0
x6,9_46 0
x6,9_53 0
x6,9_55 0
x6,9_64 0
x6,9_67 0
x6,9_70 0
x6,9_81 0
x6,9_82 0
x6,9_91 0
x6,9_108 0
x6,9_110 0
x6,9_137 0
x6,10_12 0
x6,10_17 0
x6,10_24 0
x6,10_27 0
x6,10_28 0
x6,10_29 0
x6,10_36 0
x6,10_40 0
x6,10_41 0
x6,10_46 0
x6,10_53 0
x6,10_55 0
x6,10_64 0
x6,10_67 0
x6,10_70 0
x6,10_81 0
x6,10_82 0
x6,10_91 0
x6,10_108 0
x6,10_110 0
x6,10_137 0
x6,11_12 0
x6,11_17 0
x6,11_24 0
x6,11_27 0
x6,11_28 0
x6,11_29 0
x6,11_36 0
x6,11_40 0
x6,11_41 0
x6,11_46 0
x6,11_53 0
x6,11_55 0
x6,11_64 0
x6,11_67 0
x6,11_70 0
x6,11_81 0
x6,11_82 0
x6,11_91 0
x6,11_108 0
x6,11_110 0
x6,11_137 0
x6,12_12 0
x6,12_17 0
x6,12_24 0
x6,12_27 0
x6,12_28 0
x6,12_29 0
x6,12_36 0
x6,12_40 1
x6,12_41 0
x6,12_46 0
x6,12_53 0
x6,12_55 0
x6,12_64 0
x6,12_67 0
x6,12_70 0
x6,12_81 0
x6,12_82 0
x6,12_91 0
x6,12_108 0
x6,12_110 0
x6,12_137 0
x6,13_12 0
x6,13_17 0
x6,13_24 0
x6,13_27 0
x6,13_28 0
x6,13_29 0
x6,13_36 0
x6,13_40 0
x6,13_41 0
x6,13_46 0
x6,13_53 0
x6,13_55 0
x6,13_64 0
x6,13_67 0
x6,13_70 0
x6,13_81 0
x6,13_82 0
x6,13_91 0
x6,13_108 0
x6,13_110 0
x6,13_137 0
x6,14_12 0
x6,14_17 0
x6,14_24 0
x6,14_27 0
x6,14_28 0
x6,14_29 0
x6,14_36 0
x6,14_40 0
x6,14_41 0
x6,14_46 0
x6,14_53 0
x6,14_55 0
x6,14_64 0
x6,14_67 0
x6,14_70 0
x6,14_81 0
x6,14_82 0
x6,14_91 0
x6,14_108 0
x6,14_110 0
x6,14_137 0
x7,8_12 0
x7,8_17 0
x7,8_24 0
x7,8_27 0
x7,8_28 0
x7,8_29 0
x7,8_36 0
x7,8_40 0
x7,8_41 0
x7,8_46 0
x7,8_53 0
x7,8_55 0
x7,8_64 0
x7,8_67 0
x7,8_70 0
x7,8_81 0
x7,8_82 0
x7,8_91 0
x7,8_108 0
x7,8_110 0
x7,8_137 0
x7,9_12 0
x7,9_17 0
x7,9_24 0
x7,9_27 0
x7,9_28 0
x7,9_29 0
x7,9_36 0
x7,9_40 0
x7,9_41 0
x7,9_46 0
x7,9_53 0
x7,9_55 0
x7,9_64 0
x7,9_67 0
x7,9_70 0
x7,9_81 0
x7,9_82 0
x7,9_91 0
x7,9_108 0
x7,9_110 0
x7,9_137 0
x7,10_12 0
x7,10_17 0
x7,10_24 0
x7,10_27 0
x7,10_28 0
x7,10_29 0
x7,10_36 0
x7,10_40 0
x7,10_41 0
x7,10_46 0
x7,10_53 0
x7,10_55 0
x7,10_64 0
x7,10_67 0
x7,10_70 0
x7,10_81 0
x7,10_82 0
x7,10_91 0
x7,10_108 0
x7,10_110 0
x7,10_137 0
x7,11_12 0
x7,11_17 0
x7,11_24 0
x7,11_27 0
x7,11_28 0
x7,11_29 0
x7,11_36 0
x7,11_40 0
x7,11_41 0
x7,11_46 0
x7,11_53 0
x7,11_55 0
x7,11_64 0
x7,11_67 0
x7,11_70 0
x7,11_81 0
x7,11_82 0
x7,11_91 0
x7,11_108 0
x7,11_110 0
x7,11_137 0
x7,12_12 0
x7,12_17 0
x7,12_24 0
x7,12_27 0
x7,12_28 0
x7,12_29 0
x7,12_36 0
x7,12_40 0
x7,12_41 0
x7,12_46 0
x7,12_53 0
x7,12_55 0
x7,12_64 0
x7,12_67 0
x7,12_70 0
x7,12_81 0
x7,12_82 0
x7,12_91 0
x7,12_108 0
x7,12_110 0
x7,12_137 0
x7,13_12 0
x7,13_17 0
x7,13_24 0
x7,13_27 0
x7,13_28 0
x7,13_29 0
x7,13_36 0
x7,13_40 0
x7,13_41 0
x7,13_46 0
x7,13_53 0
x7,13_55 0
x7,13_64 0
x7,13_67 0
x7,13_70 1
x7,13_81 0
x7,13_82 0
x7,13_91 0
x7,13_108 0
x7,13_110 0
x7,13_137 0
x7,14_12 0
x7,14_17 0
x7,14_24 0
x7,14_27 0
x7,14_28 0
x7,14_29 0
x7,14_36 0
x7,14_40 0
x7,14_41 0
x7,14_46 0
x7,14_53 0
x7,14_55 0
x7,14_64 0
x7,14_67 0
x7,14_70 0
x7,14_81 0
x7,14_82 0
x7,14_91 0
x7,14_108 0
x7,14_110 0
x7,14_137 0
x8,9_12 0
x8,9_17 0
x8,9_24 0
x8,9_27 0
x8,9_28 0
x8,9_29 0
x8,9_36 0
x8,9_40 0
x8,9_41 0
x8,9_46 0
x8,9_53 0
x8,9_55 0
x8,9_64 0
x8,9_67 0
x8,9_70 0
x8,9_81 0
x8,9_82 0
x8,9_91 0
x8,9_108 0
x8,9_110 0
x8,9_137 0
x8,10_12 0
x8,10_17 0
x8,10_24 0
x8,10_27 0
x8,10_28 0
x8,10_29 0
x8,10_36 0
x8,10_40 0
x8,10_41 0
x8,10_46 0
x8,10_53 0
x8,10_55 0
x8,10_64 0
x8,10_67 0
x8,10_70 0
x8,10_81 0
x8,10_82 0
x8,10_91 0
x8,10_108 0
x8,10_110 0
x8,10_137 0
x8,11_12 0
x8,11_17 0
x8,11_24 0
x8,11_27 0
x8,11_28 0
x8,11_29 0
x8,11_36 0
x8,11_40 0
x8,11_41 0
x8,11_46 0
x8,11_53 0
x8,11_55 0
x8,11_64 0
x8,11_67 0
x8,11_70 0
x8,11_81 0
x8,11_82 0
x8,11_91 0
x8,11_108 0
x8,11_110 0
x8,11_137 0
x8,12_12 0
x8,12_17 0
x8,12_24 0
x8,12_27 0
x8,12_28 0
x8,12_29 0
x8,12_36 0
x8,12_40 0
x8,12_41 0
x8,12_46 0
x8,12_53 0
x8,12_55 0
x8,12_64 0
x8,12_67 0
x8,12_70 0
x8,12_81 0
x8,12_82 0
x8,12_91 0
x8,12_108 0
x8,12_110 0
x8,12_137 0
x8,13_12 0
x8,13_17 0
x8,13_24 0
x8,13_27 0
x8,13_28 0
x8,13_29 0
x8,13_36 0
x8,13_40 0
x8,13_41 0
x8,13_46 0
x8,13_53 0
x8,13_55 0
x8,13_64 0
x8,13_67 1
x8,13_70 0
x8,13_81 0
x8,13_82 0
x8,13_91 0
x8,13_108 0
x8,13_110 0
x8,13_137 0
x8,14_12 0
x8,14_17 0
x8,14_24 0
x8,14_27 0
x8,14_28 0
x8,14_29 0
x8,14_36 0
x8,14_40 0
x8,14_41 0
x8,14_46 0
x8,14_53 0
x8,14_55 0
x8,14_64 0
x8,14_67 0
x8,14_70 0
x8,14_81 0
x8,14_82 0
x8,14_91 0
x8,14_108 0
x8,14_110 0
x8,14_137 0
x9,10_12 0
x9,10_17 0
x9,10_24 0
x9,10_27 0
x9,10_28 0
x9,10_29 0
x9,10_36 0
x9,10_40 0
x9,10_41 0
x9,10_46 0
x9,10_53 0
x9,10_55 0
x9,10_64 0
x9,10_67 0
x9,10_70 0
x9,10_81 0
x9,10_82 0
x9,10_91 0
x9,10_108 0
x9,10_110 0
x9,10_137 0
x9,11_12 0
x9,11_17 0
x9,11_24 0
x9,11_27 0
x9,11_28 0
x9,11_29 0
x9,11_36 0
x9,11_40 0
x9,11_41 0
x9,11_46 0
x9,11_53 0
x9,11_55 0
x9,11_64 0
x9,11_67 0
x9,11_70 0
x9,11_81 0
x9,11_82 0
x9,11_91 0
x9,11_108 0
x9,11_110 0
x9,11_137 0
x9,12_12 0
x9,12_17 0
x9,12_24 0
x9,12_27 0
x9,12_28 0
x9,12_29 0
x9,12_36 0
x9,12_40 0
x9,12_41 0
x9,12_46 0
x9,12_53 0
x9,12_55 0
x9,12_64 0
x9,12_67 0
x9,12_70 0
x9,12_81 0
x9,12_82 0
x9,12_91 0
x9,12_108 0
x9,12_110 0
x9,12_137 0
x9,13_12 0
x9,13_17 0
x9,13_24 0
x9,13_27 0
x9,13_28 0
x9,13_29 0
x9,13_36 0
x9,13_40 0
x9,13_41 0
x9,13_46 0
x9,13_53 0
x9,13_55 0
x9,13_64 1
x9,13_67 0
x9,13_70 0
x9,13_81 0
x9,13_82 0
x9,13_91 0
x9,13_108 0
x9,13_110 0
x9,13_137 0
x9,14_12 0
x9,14_17 0
x9,14_24 0
x9,14_27 0
x9,14_28 0
x9,14_29 0
x9,14_36 0
x9,14_40 0
x9,14_41 0
x9,14_46 0
x9,14_53 0
x9,14_55 0
x9,14_64 0
x9,14_67 0
x9,14_70 0
x9,14_81 0
x9,14_82 0
x9,14_91 0
x9,14_108 0
x9,14_110 0
x9,14_137 0
x10,11_12 0
x10,11_17 0
x10,11_24 0
x10,11_27 0
x10,11_28 0
x10,11_29 0
x10,11_36 0
x10,11_40 0
x10,11_41 0
x10,11_46 0
x10,11_53 0
x10,11_55 0
x10,11_64 0
x10,11_67 0
x10,11_70 0
x10,11_81 0
x10,11_82 0
x10,11_91 0
x10,11_108 0
x10,11_110 0
x10,11_137 0
x10,12_12 0
x10,12_17 0
x10,12_24 0
x10,12_27 0
x10,12_28 0
x10,12_29 0
x10,12_36 0
x10,12_40 0
x10,12_41 0
x10,12_46 0
x10,12_53 0
x10,12_55 0
x10,12_64 0
x10,12_67 0
x10,12_70 0
x10,12_81 0
x10,12_82 0
x10,12_91 0
x10,12_108 0
x10,12_110 0
x10,12_137 0
x10,13_12 0
x10,13_17 0
x10,13_24 0
x10,13_27 0
x10,13_28 0
x10,13_29 0
x10,13_36 0
x10,13_40 0
x10,13_41 0
x10,13_46 0
x10,13_53 0
x10,13_55 1
x10,13_64 0
x10,13_67 0
x10,13_70 0
x10,13_81 0
x10,13_82 0
x10,13_91 0
x10,13_108 0
x10,13_110 0
x10,13_137 0
x10,14_12 0
x10,14_17 0
x10,14_24 0
x10,14_27 0
x10,14_28 0
x10,14_29 0
x10,14_36 0
x10,14_40 0
x10,14_41 0
x10,14_46 0
x10,14_53 0
x10,14_55 0
x10,14_64 0
x10,14_67 0
x10,14_70 0
x10,14_81 0
x10,14_82 0
x10,14_91 0
x10,14_108 0
x10,14_110 1
x10,14_137 0
x11,12_12 0
x11,12_17 1
x11,12_24 0
x11,12_27 0
x11,12_28 0
x11,12_29 0
x11,12_36 0
x11,12_40 0
x11,12_41 0
x11,12_46 0
x11,12_53 0
x11,12_55 0
x11,12_64 0
x11,12_67 0
x11,12_70 0
x11,12_81 0
x11,12_82 0
x11,12_91 0
x11,12_108 0
x11,12_110 0
x11,12_137 0
x11,13_12 0
x11,13_17 0
x11,13_24 0
x11,13_27 0
x11,13_28 0
x11,13_29 0
x11,13_36 0
x11,13_40 0
x11,13_41 0
x11,13_46 0
x11,13_53 1
x11,13_55 0
x11,13_64 0
x11,13_67 0
x11,13_70 0
x11,13_81 0
x11,13_82 0
x11,13_91 0
x11,13_108 0
x11,13_110 0
x11,13_137 0
x11,14_12 0
x11,14_17 0
x11,14_24 0
x11,14_27 0
x11,14_28 0
x11,14_29 0
x11,14_36 0
x11,14_40 0
x11,14_41 0
x11,14_46 0
x11,14_53 0
x11,14_55 0
x11,14_64 0
x11,14_67 0
x11,14_70 0
x11,14_81 0
x11,14_82 0
x11,14_91 0
x11,14_108 1
x11,14_110 0
x11,14_137 0
x12,13_12 0
x12,13_17 0
x12,13_24 0
x12,13_27 0
x12,13_28 0
x12,13_29 0
x12,13_36 1
x12,13_40 0
x12,13_41 0
x12,13_46 0
x12,13_53 0
x12,13_55 0
x12,13_64 0
x12,13_67 0
x12,13_70 0
x12,13_81 0
x12,13_82 0
x12,13_91 0
x12,13_108 0
x12,13_110 0
x12,13_137 0
x12,14_12 0
x12,14_17 0
x12,14_24 0
x12,14_27 0
x12,14_28 0
x12,14_29 0
x12,14_36 0
x12,14_40 0
x12,14_41 0
x12,14_46 0
x12,14_53 0
x12,14_55 0
x12,14_64 0
x12,14_67 0
x12,14_70 0
x12,14_81 0
x12,14_82 0
x12,14_91 1
x12,14_108 0
x12,14_110 0
x12,14_137 0
x13,14_12 0
x13,14_17 0
x13,14_24 0
x13,14_27 0
x13,14_28 0
x13,14_29 0
x13,14_36 0
x13,14_40 0
x13,14_41 0
x13,14_46 0
x13,14_53 0
x13,14_55 0
x13,14_64 0
x13,14_67 0
x13,14_70 0
x13,14_81 0
x13,14_82 0
x13,14_91 0
x13,14_108 0
x13,14_110 0
x13,14_137 0
p0 0
p1 1
p2 2
p3 3
p4 4
p5 5
p6 6
p7 12
p8 15
p9 18
p10 27
p11 29
p12 46
p13 82
p14 137
